NAME          
ROWS
 N  OBJ
 L  c1
 L  c2
 L  c3
 L  c4
 L  c5
COLUMNS
    MARKER    'MARKER'                 'INTORG'
    x[1]      c1        316
    x[1]      c2        871
    x[1]      c3        221
    x[1]      c4        836
    x[1]      c5        258
    x[1]      OBJ       -448
    x[2]      c1        334
    x[2]      c2        458
    x[2]      c3        42
    x[2]      c4        239
    x[2]      c5        735
    x[2]      OBJ       -986
    x[3]      c1        474
    x[3]      c2        512
    x[3]      c3        27
    x[3]      c4        719
    x[3]      c5        184
    x[3]      OBJ       -462
    x[4]      c1        852
    x[4]      c2        684
    x[4]      c3        193
    x[4]      c4        319
    x[4]      c5        801
    x[4]      OBJ       -307
    x[5]      c1        475
    x[5]      c2        388
    x[5]      c3        146
    x[5]      c4        222
    x[5]      c5        768
    x[5]      OBJ       -454
    x[6]      c1        186
    x[6]      c2        896
    x[6]      c3        579
    x[6]      c4        879
    x[6]      c5        66
    x[6]      OBJ       -137
    x[7]      c1        497
    x[7]      c2        511
    x[7]      c3        352
    x[7]      c4        367
    x[7]      c5        309
    x[7]      OBJ       -289
    x[8]      c1        775
    x[8]      c2        901
    x[8]      c3        427
    x[8]      c4        211
    x[8]      c5        894
    x[8]      OBJ       -904
    x[9]      c1        5
    x[9]      c2        899
    x[9]      c3        561
    x[9]      c4        851
    x[9]      c5        809
    x[9]      OBJ       -640
    x[10]     c1        229
    x[10]     c2        149
    x[10]     c3        868
    x[10]     c4        80
    x[10]     c5        301
    x[10]     OBJ       -962
    x[11]     c1        2
    x[11]     c2        315
    x[11]     c3        802
    x[11]     c4        142
    x[11]     c5        645
    x[11]     OBJ       -139
    x[12]     c1        138
    x[12]     c2        938
    x[12]     c3        74
    x[12]     c4        57
    x[12]     c5        883
    x[12]     OBJ       -276
    x[13]     c1        248
    x[13]     c2        917
    x[13]     c3        311
    x[13]     c4        61
    x[13]     c5        280
    x[13]     OBJ       -942
    x[14]     c1        799
    x[14]     c2        818
    x[14]     c3        547
    x[14]     c4        546
    x[14]     c5        198
    x[14]     OBJ       -782
    x[15]     c1        78
    x[15]     c2        825
    x[15]     c3        353
    x[15]     c4        846
    x[15]     c5        613
    x[15]     OBJ       -352
    x[16]     c1        158
    x[16]     c2        192
    x[16]     c3        470
    x[16]     c4        319
    x[16]     c5        458
    x[16]     OBJ       -177
    x[17]     c1        744
    x[17]     c2        438
    x[17]     c3        312
    x[17]     c4        304
    x[17]     c5        607
    x[17]     OBJ       -312
    x[18]     c1        428
    x[18]     c2        267
    x[18]     c3        773
    x[18]     c4        436
    x[18]     c5        754
    x[18]     OBJ       -128
    x[19]     c1        530
    x[19]     c2        186
    x[19]     c3        86
    x[19]     c4        152
    x[19]     c5        786
    x[19]     OBJ       -234
    x[20]     c1        415
    x[20]     c2        846
    x[20]     c3        727
    x[20]     c4        456
    x[20]     c5        850
    x[20]     OBJ       -319
    x[21]     c1        201
    x[21]     c2        525
    x[21]     c3        305
    x[21]     c4        456
    x[21]     c5        134
    x[21]     OBJ       -794
    x[22]     c1        100
    x[22]     c2        803
    x[22]     c3        753
    x[22]     c4        988
    x[22]     c5        566
    x[22]     OBJ       -520
    x[23]     c1        109
    x[23]     c2        172
    x[23]     c3        746
    x[23]     c4        799
    x[23]     c5        984
    x[23]     OBJ       -679
    x[24]     c1        299
    x[24]     c2        383
    x[24]     c3        32
    x[24]     c4        28
    x[24]     c5        493
    x[24]     OBJ       -955
    x[25]     c1        515
    x[25]     c2        850
    x[25]     c3        1000
    x[25]     c4        712
    x[25]     c5        855
    x[25]     OBJ       -120
    x[26]     c1        557
    x[26]     c2        803
    x[26]     c3        475
    x[26]     c4        910
    x[26]     c5        959
    x[26]     OBJ       -554
    x[27]     c1        615
    x[27]     c2        85
    x[27]     c3        358
    x[27]     c4        668
    x[27]     c5        93
    x[27]     OBJ       -554
    x[28]     c1        490
    x[28]     c2        65
    x[28]     c3        733
    x[28]     c4        684
    x[28]     c5        692
    x[28]     OBJ       -682
    x[29]     c1        910
    x[29]     c2        145
    x[29]     c3        436
    x[29]     c4        715
    x[29]     c5        108
    x[29]     OBJ       -854
    x[30]     c1        783
    x[30]     c2        598
    x[30]     c3        710
    x[30]     c4        588
    x[30]     c5        751
    x[30]     OBJ       -488
    x[31]     c1        136
    x[31]     c2        810
    x[31]     c3        410
    x[31]     c4        907
    x[31]     c5        194
    x[31]     OBJ       -941
    x[32]     c1        27
    x[32]     c2        184
    x[32]     c3        216
    x[32]     c4        722
    x[32]     c5        114
    x[32]     OBJ       -380
    x[33]     c1        348
    x[33]     c2        521
    x[33]     c3        418
    x[33]     c4        121
    x[33]     c5        488
    x[33]     OBJ       -854
    x[34]     c1        141
    x[34]     c2        542
    x[34]     c3        386
    x[34]     c4        581
    x[34]     c5        267
    x[34]     OBJ       -926
    x[35]     c1        486
    x[35]     c2        813
    x[35]     c3        95
    x[35]     c4        118
    x[35]     c5        239
    x[35]     OBJ       -497
RHS
    rhs       c1        6700
    rhs       c2        9655
    rhs       c3        7472
    rhs       c4        8520
    rhs       c5        9068
RANGES
BOUNDS
 BV bounds    x[1]
 BV bounds    x[2]
 BV bounds    x[3]
 BV bounds    x[4]
 BV bounds    x[5]
 BV bounds    x[6]
 BV bounds    x[7]
 BV bounds    x[8]
 BV bounds    x[9]
 BV bounds    x[10]
 BV bounds    x[11]
 BV bounds    x[12]
 BV bounds    x[13]
 BV bounds    x[14]
 BV bounds    x[15]
 BV bounds    x[16]
 BV bounds    x[17]
 BV bounds    x[18]
 BV bounds    x[19]
 BV bounds    x[20]
 BV bounds    x[21]
 BV bounds    x[22]
 BV bounds    x[23]
 BV bounds    x[24]
 BV bounds    x[25]
 BV bounds    x[26]
 BV bounds    x[27]
 BV bounds    x[28]
 BV bounds    x[29]
 BV bounds    x[30]
 BV bounds    x[31]
 BV bounds    x[32]
 BV bounds    x[33]
 BV bounds    x[34]
 BV bounds    x[35]
ENDATA
